p cnf 614 1183
-1 -33 0 
-1 -63 0 
1 2 33 0 
1 2 63 0 
-2 -33 0 
-2 -63 0 
-3 -34 0 
-3 -64 0 
3 -33 34 0 
3 -63 64 0 
-4 -35 0 
-4 -65 0 
4 -34 35 0 
4 -64 65 0 
-5 -36 0 
-5 -66 0 
5 -35 36 0 
5 -65 66 0 
-6 -37 0 
-6 -67 0 
6 -36 37 0 
6 -66 67 0 
-7 -38 0 
-7 -68 0 
7 -37 38 0 
7 -67 68 0 
-8 -39 0 
-8 -69 0 
8 -38 39 0 
8 -68 69 0 
-9 -40 0 
-9 -70 0 
9 -39 40 0 
9 -69 70 0 
-10 -41 0 
-10 -71 0 
10 -40 41 0 
10 -70 71 0 
-11 -42 0 
-11 -72 0 
11 -41 42 0 
11 -71 72 0 
-12 -43 0 
-12 -73 0 
12 -42 43 0 
12 -72 73 0 
-13 -44 0 
-13 -74 0 
13 -43 44 0 
13 -73 74 0 
-14 -45 0 
-14 -75 0 
14 -44 45 0 
14 -74 75 0 
-15 -46 0 
-15 -76 0 
15 -45 46 0 
15 -75 76 0 
-16 -47 0 
-16 -77 0 
16 -46 47 0 
16 -76 77 0 
-17 -48 0 
-17 -78 0 
17 -47 48 0 
17 -77 78 0 
-18 -49 0 
-18 -79 0 
18 -48 49 0 
18 -78 79 0 
-19 -50 0 
-19 -80 0 
19 -49 50 0 
19 -79 80 0 
-20 -51 0 
-20 -81 0 
20 -50 51 0 
20 -80 81 0 
-21 -52 0 
-21 -82 0 
21 -51 52 0 
21 -81 82 0 
-22 -53 0 
-22 -83 0 
22 -52 53 0 
22 -82 83 0 
-23 -54 0 
-23 -84 0 
23 -53 54 0 
23 -83 84 0 
-24 -55 0 
-24 -85 0 
24 -54 55 0 
24 -84 85 0 
-25 -56 0 
-25 -86 0 
25 -55 56 0 
25 -85 86 0 
-26 -57 0 
-26 -87 0 
26 -56 57 0 
26 -86 87 0 
-27 -58 0 
-27 -87 88 0 
27 -88 0 
27 -57 58 0 
-28 -59 0 
-28 -89 0 
28 -58 59 0 
28 -88 89 0 
-29 -60 0 
-29 -89 90 0 
29 -90 0 
29 -59 60 0 
-30 -61 0 
-30 -90 91 0 
30 -91 0 
30 -60 61 0 
-31 -62 0 
-31 -92 0 
31 -61 62 0 
31 -91 92 0 
-32 -92 0 
32 -62 0 
33 -34 0 
34 -35 0 
35 -36 0 
36 -37 0 
37 -38 0 
38 -39 0 
39 -40 0 
40 -41 0 
41 -42 0 
42 -43 0 
43 -44 0 
44 -45 0 
45 -46 0 
46 -47 0 
47 -48 0 
48 -49 0 
49 -50 0 
50 -51 0 
51 -52 0 
52 -53 0 
53 -54 0 
54 -55 0 
55 -56 0 
56 -57 0 
57 -58 0 
58 -59 0 
59 -60 0 
60 -61 0 
61 -62 0 
63 -64 0 
64 -65 0 
65 -66 0 
66 -67 0 
67 -68 0 
68 -69 0 
69 -70 0 
70 -71 0 
71 -72 0 
72 -73 0 
73 -74 0 
74 -75 0 
75 -76 0 
76 -77 0 
77 -78 0 
78 -79 0 
79 -80 0 
80 -81 0 
81 -82 0 
82 -83 0 
83 -84 0 
84 -85 0 
85 -86 0 
86 -87 0 
87 -88 0 
88 -89 0 
89 -90 0 
90 -91 0 
91 -92 0 
-93 -125 0 
-93 -155 0 
93 94 125 0 
93 94 155 0 
-94 -125 0 
-94 -155 0 
-95 -126 0 
-95 -156 0 
95 -125 126 0 
95 -155 156 0 
-96 -127 0 
-96 -157 0 
96 -126 127 0 
96 -156 157 0 
-97 -128 0 
-97 -158 0 
97 -127 128 0 
97 -157 158 0 
-98 -129 0 
-98 -159 0 
98 -128 129 0 
98 -158 159 0 
-99 -130 0 
-99 -160 0 
99 -129 130 0 
99 -159 160 0 
-100 -131 0 
-100 -161 0 
100 -130 131 0 
100 -160 161 0 
-101 -132 0 
-101 -162 0 
101 -131 132 0 
101 -161 162 0 
-102 -133 0 
-102 -163 0 
102 -132 133 0 
102 -162 163 0 
-103 -134 0 
-103 -164 0 
103 -133 134 0 
103 -163 164 0 
-104 -135 0 
-104 -165 0 
104 -134 135 0 
104 -164 165 0 
-105 -136 0 
-105 -166 0 
105 -135 136 0 
105 -165 166 0 
-106 -137 0 
-106 -167 0 
106 -136 137 0 
106 -166 167 0 
-107 -138 0 
-107 -168 0 
107 -137 138 0 
107 -167 168 0 
-108 -139 0 
-108 -169 0 
108 -138 139 0 
108 -168 169 0 
-109 -140 0 
-109 -170 0 
109 -139 140 0 
109 -169 170 0 
-110 -141 0 
-110 -171 0 
110 -140 141 0 
110 -170 171 0 
-111 -142 0 
-111 -172 0 
111 -141 142 0 
111 -171 172 0 
-112 -143 0 
-112 -173 0 
112 -142 143 0 
112 -172 173 0 
-113 -144 0 
-113 -174 0 
113 -143 144 0 
113 -173 174 0 
-114 -145 0 
-114 -175 0 
114 -144 145 0 
114 -174 175 0 
-115 -146 0 
-115 -176 0 
115 -145 146 0 
115 -175 176 0 
-116 -147 0 
-116 -177 0 
116 -146 147 0 
116 -176 177 0 
-117 -148 0 
-117 -178 0 
117 -147 148 0 
117 -177 178 0 
-118 -149 0 
-118 -179 0 
118 -148 149 0 
118 -178 179 0 
-119 -150 0 
-119 -179 180 0 
119 -180 0 
119 -149 150 0 
-120 -151 0 
-120 -181 0 
120 -150 151 0 
120 -180 181 0 
-121 -152 0 
-121 -181 182 0 
121 -182 0 
121 -151 152 0 
-122 -153 0 
-122 -182 183 0 
122 -183 0 
122 -152 153 0 
-123 -154 0 
-123 -184 0 
123 -153 154 0 
123 -183 184 0 
-124 -184 0 
124 -154 0 
125 -126 0 
126 -127 0 
127 -128 0 
128 -129 0 
129 -130 0 
130 -131 0 
131 -132 0 
132 -133 0 
133 -134 0 
134 -135 0 
135 -136 0 
136 -137 0 
137 -138 0 
138 -139 0 
139 -140 0 
140 -141 0 
141 -142 0 
142 -143 0 
143 -144 0 
144 -145 0 
145 -146 0 
146 -147 0 
147 -148 0 
148 -149 0 
149 -150 0 
150 -151 0 
151 -152 0 
152 -153 0 
153 -154 0 
155 -156 0 
156 -157 0 
157 -158 0 
158 -159 0 
159 -160 0 
160 -161 0 
161 -162 0 
162 -163 0 
163 -164 0 
164 -165 0 
165 -166 0 
166 -167 0 
167 -168 0 
168 -169 0 
169 -170 0 
170 -171 0 
171 -172 0 
172 -173 0 
173 -174 0 
174 -175 0 
175 -176 0 
176 -177 0 
177 -178 0 
178 -179 0 
179 -180 0 
180 -181 0 
181 -182 0 
182 -183 0 
183 -184 0 
-185 -217 0 
-185 -247 0 
185 186 217 0 
185 186 247 0 
-186 -217 0 
-186 -247 0 
-187 -218 0 
-187 -248 0 
187 -217 218 0 
187 -247 248 0 
-188 -219 0 
-188 -249 0 
188 -218 219 0 
188 -248 249 0 
-189 -220 0 
-189 -250 0 
189 -219 220 0 
189 -249 250 0 
-190 -221 0 
-190 -251 0 
190 -220 221 0 
190 -250 251 0 
-191 -222 0 
-191 -252 0 
191 -221 222 0 
191 -251 252 0 
-192 -223 0 
-192 -253 0 
192 -222 223 0 
192 -252 253 0 
-193 -224 0 
-193 -254 0 
193 -223 224 0 
193 -253 254 0 
-194 -225 0 
-194 -255 0 
194 -224 225 0 
194 -254 255 0 
-195 -226 0 
-195 -256 0 
195 -225 226 0 
195 -255 256 0 
-196 -227 0 
-196 -257 0 
196 -226 227 0 
196 -256 257 0 
-197 -228 0 
-197 -258 0 
197 -227 228 0 
197 -257 258 0 
-198 -229 0 
-198 -259 0 
198 -228 229 0 
198 -258 259 0 
-199 -230 0 
-199 -260 0 
199 -229 230 0 
199 -259 260 0 
-200 -231 0 
-200 -261 0 
200 -230 231 0 
200 -260 261 0 
-201 -232 0 
-201 -262 0 
201 -231 232 0 
201 -261 262 0 
-202 -233 0 
-202 -263 0 
202 -232 233 0 
202 -262 263 0 
-203 -234 0 
-203 -264 0 
203 -233 234 0 
203 -263 264 0 
-204 -235 0 
-204 -265 0 
204 -234 235 0 
204 -264 265 0 
-205 -236 0 
-205 -266 0 
205 -235 236 0 
205 -265 266 0 
-206 -237 0 
-206 -267 0 
206 -236 237 0 
206 -266 267 0 
-207 -238 0 
-207 -268 0 
207 -237 238 0 
207 -267 268 0 
-208 -239 0 
-208 -269 0 
208 -238 239 0 
208 -268 269 0 
-209 -240 0 
-209 -270 0 
209 -239 240 0 
209 -269 270 0 
-210 -241 0 
-210 -271 0 
210 -240 241 0 
210 -270 271 0 
-211 -242 0 
-211 -271 272 0 
211 -272 0 
211 -241 242 0 
-212 -243 0 
-212 -273 0 
212 -242 243 0 
212 -272 273 0 
-213 -244 0 
-213 -273 274 0 
213 -274 0 
213 -243 244 0 
-214 -245 0 
-214 -274 275 0 
214 -275 0 
214 -244 245 0 
-215 -246 0 
-215 -276 0 
215 -245 246 0 
215 -275 276 0 
-216 -276 0 
216 -246 0 
217 -218 0 
218 -219 0 
219 -220 0 
220 -221 0 
221 -222 0 
222 -223 0 
223 -224 0 
224 -225 0 
225 -226 0 
226 -227 0 
227 -228 0 
228 -229 0 
229 -230 0 
230 -231 0 
231 -232 0 
232 -233 0 
233 -234 0 
234 -235 0 
235 -236 0 
236 -237 0 
237 -238 0 
238 -239 0 
239 -240 0 
240 -241 0 
241 -242 0 
242 -243 0 
243 -244 0 
244 -245 0 
245 -246 0 
247 -248 0 
248 -249 0 
249 -250 0 
250 -251 0 
251 -252 0 
252 -253 0 
253 -254 0 
254 -255 0 
255 -256 0 
256 -257 0 
257 -258 0 
258 -259 0 
259 -260 0 
260 -261 0 
261 -262 0 
262 -263 0 
263 -264 0 
264 -265 0 
265 -266 0 
266 -267 0 
267 -268 0 
268 -269 0 
269 -270 0 
270 -271 0 
271 -272 0 
272 -273 0 
273 -274 0 
274 -275 0 
275 -276 0 
-277 -309 0 
-277 -339 0 
277 278 309 0 
277 278 339 0 
-278 -309 0 
-278 -339 0 
-279 -310 0 
-279 -340 0 
279 -309 310 0 
279 -339 340 0 
-280 -311 0 
-280 -341 0 
280 -310 311 0 
280 -340 341 0 
-281 -312 0 
-281 -342 0 
281 -311 312 0 
281 -341 342 0 
-282 -313 0 
-282 -343 0 
282 -312 313 0 
282 -342 343 0 
-283 -314 0 
-283 -344 0 
283 -313 314 0 
283 -343 344 0 
-284 -315 0 
-284 -345 0 
284 -314 315 0 
284 -344 345 0 
-285 -316 0 
-285 -346 0 
285 -315 316 0 
285 -345 346 0 
-286 -317 0 
-286 -347 0 
286 -316 317 0 
286 -346 347 0 
-287 -318 0 
-287 -348 0 
287 -317 318 0 
287 -347 348 0 
-288 -319 0 
-288 -349 0 
288 -318 319 0 
288 -348 349 0 
-289 -320 0 
-289 -350 0 
289 -319 320 0 
289 -349 350 0 
-290 -321 0 
-290 -351 0 
290 -320 321 0 
290 -350 351 0 
-291 -322 0 
-291 -352 0 
291 -321 322 0 
291 -351 352 0 
-292 -323 0 
-292 -353 0 
292 -322 323 0 
292 -352 353 0 
-293 -324 0 
-293 -354 0 
293 -323 324 0 
293 -353 354 0 
-294 -325 0 
-294 -355 0 
294 -324 325 0 
294 -354 355 0 
-295 -326 0 
-295 -356 0 
295 -325 326 0 
295 -355 356 0 
-296 -327 0 
-296 -357 0 
296 -326 327 0 
296 -356 357 0 
-297 -328 0 
-297 -358 0 
297 -327 328 0 
297 -357 358 0 
-298 -329 0 
-298 -359 0 
298 -328 329 0 
298 -358 359 0 
-299 -330 0 
-299 -360 0 
299 -329 330 0 
299 -359 360 0 
-300 -331 0 
-300 -361 0 
300 -330 331 0 
300 -360 361 0 
-301 -332 0 
-301 -362 0 
301 -331 332 0 
301 -361 362 0 
-302 -333 0 
-302 -363 0 
302 -332 333 0 
302 -362 363 0 
-303 -334 0 
-303 -363 364 0 
303 -364 0 
303 -333 334 0 
-304 -335 0 
-304 -365 0 
304 -334 335 0 
304 -364 365 0 
-305 -336 0 
-305 -365 366 0 
305 -366 0 
305 -335 336 0 
-306 -337 0 
-306 -366 367 0 
306 -367 0 
306 -336 337 0 
-307 -338 0 
-307 -368 0 
307 -337 338 0 
307 -367 368 0 
-308 -368 0 
308 -338 0 
309 -310 0 
310 -311 0 
311 -312 0 
312 -313 0 
313 -314 0 
314 -315 0 
315 -316 0 
316 -317 0 
317 -318 0 
318 -319 0 
319 -320 0 
320 -321 0 
321 -322 0 
322 -323 0 
323 -324 0 
324 -325 0 
325 -326 0 
326 -327 0 
327 -328 0 
328 -329 0 
329 -330 0 
330 -331 0 
331 -332 0 
332 -333 0 
333 -334 0 
334 -335 0 
335 -336 0 
336 -337 0 
337 -338 0 
339 -340 0 
340 -341 0 
341 -342 0 
342 -343 0 
343 -344 0 
344 -345 0 
345 -346 0 
346 -347 0 
347 -348 0 
348 -349 0 
349 -350 0 
350 -351 0 
351 -352 0 
352 -353 0 
353 -354 0 
354 -355 0 
355 -356 0 
356 -357 0 
357 -358 0 
358 -359 0 
359 -360 0 
360 -361 0 
361 -362 0 
362 -363 0 
363 -364 0 
364 -365 0 
365 -366 0 
366 -367 0 
367 -368 0 
-369 -401 0 
-369 -431 0 
369 370 401 0 
369 370 431 0 
-370 -401 0 
-370 -431 0 
-371 -402 0 
-371 -432 0 
371 -401 402 0 
371 -431 432 0 
-372 -403 0 
-372 -433 0 
372 -402 403 0 
372 -432 433 0 
-373 -404 0 
-373 -434 0 
373 -403 404 0 
373 -433 434 0 
-374 -405 0 
-374 -435 0 
374 -404 405 0 
374 -434 435 0 
-375 -406 0 
-375 -436 0 
375 -405 406 0 
375 -435 436 0 
-376 -407 0 
-376 -437 0 
376 -406 407 0 
376 -436 437 0 
-377 -408 0 
-377 -438 0 
377 -407 408 0 
377 -437 438 0 
-378 -409 0 
-378 -439 0 
378 -408 409 0 
378 -438 439 0 
-379 -410 0 
-379 -440 0 
379 -409 410 0 
379 -439 440 0 
-380 -411 0 
-380 -441 0 
380 -410 411 0 
380 -440 441 0 
-381 -412 0 
-381 -442 0 
381 -411 412 0 
381 -441 442 0 
-382 -413 0 
-382 -443 0 
382 -412 413 0 
382 -442 443 0 
-383 -414 0 
-383 -444 0 
383 -413 414 0 
383 -443 444 0 
-384 -415 0 
-384 -445 0 
384 -414 415 0 
384 -444 445 0 
-385 -416 0 
-385 -446 0 
385 -415 416 0 
385 -445 446 0 
-386 -417 0 
-386 -447 0 
386 -416 417 0 
386 -446 447 0 
-387 -418 0 
-387 -448 0 
387 -417 418 0 
387 -447 448 0 
-388 -419 0 
-388 -449 0 
388 -418 419 0 
388 -448 449 0 
-389 -420 0 
-389 -450 0 
389 -419 420 0 
389 -449 450 0 
-390 -421 0 
-390 -451 0 
390 -420 421 0 
390 -450 451 0 
-391 -422 0 
-391 -452 0 
391 -421 422 0 
391 -451 452 0 
-392 -423 0 
-392 -453 0 
392 -422 423 0 
392 -452 453 0 
-393 -424 0 
-393 -454 0 
393 -423 424 0 
393 -453 454 0 
-394 -425 0 
-394 -455 0 
394 -424 425 0 
394 -454 455 0 
-395 -426 0 
-395 -455 456 0 
395 -456 0 
395 -425 426 0 
-396 -427 0 
-396 -457 0 
396 -426 427 0 
396 -456 457 0 
-397 -428 0 
-397 -457 458 0 
397 -458 0 
397 -427 428 0 
-398 -429 0 
-398 -458 459 0 
398 -459 0 
398 -428 429 0 
-399 -430 0 
-399 -460 0 
399 -429 430 0 
399 -459 460 0 
-400 -460 0 
400 -430 0 
401 -402 0 
402 -403 0 
403 -404 0 
404 -405 0 
405 -406 0 
406 -407 0 
407 -408 0 
408 -409 0 
409 -410 0 
410 -411 0 
411 -412 0 
412 -413 0 
413 -414 0 
414 -415 0 
415 -416 0 
416 -417 0 
417 -418 0 
418 -419 0 
419 -420 0 
420 -421 0 
421 -422 0 
422 -423 0 
423 -424 0 
424 -425 0 
425 -426 0 
426 -427 0 
427 -428 0 
428 -429 0 
429 -430 0 
431 -432 0 
432 -433 0 
433 -434 0 
434 -435 0 
435 -436 0 
436 -437 0 
437 -438 0 
438 -439 0 
439 -440 0 
440 -441 0 
441 -442 0 
442 -443 0 
443 -444 0 
444 -445 0 
445 -446 0 
446 -447 0 
447 -448 0 
448 -449 0 
449 -450 0 
450 -451 0 
451 -452 0 
452 -453 0 
453 -454 0 
454 -455 0 
455 -456 0 
456 -457 0 
457 -458 0 
458 -459 0 
459 -460 0 
-461 -493 0 
-461 -523 0 
461 462 493 0 
461 462 523 0 
-462 -493 0 
-462 -523 0 
-463 -494 0 
-463 -524 0 
463 -493 494 0 
463 -523 524 0 
-464 -495 0 
-464 -525 0 
464 -494 495 0 
464 -524 525 0 
-465 -496 0 
-465 -526 0 
465 -495 496 0 
465 -525 526 0 
-466 -497 0 
-466 -527 0 
466 -496 497 0 
466 -526 527 0 
-467 -498 0 
-467 -528 0 
467 -497 498 0 
467 -527 528 0 
-468 -499 0 
-468 -529 0 
468 -498 499 0 
468 -528 529 0 
-469 -500 0 
-469 -530 0 
469 -499 500 0 
469 -529 530 0 
-470 -501 0 
-470 -531 0 
470 -500 501 0 
470 -530 531 0 
-471 -502 0 
-471 -532 0 
471 -501 502 0 
471 -531 532 0 
-472 -503 0 
-472 -533 0 
472 -502 503 0 
472 -532 533 0 
-473 -504 0 
-473 -534 0 
473 -503 504 0 
473 -533 534 0 
-474 -505 0 
-474 -535 0 
474 -504 505 0 
474 -534 535 0 
-475 -506 0 
-475 -536 0 
475 -505 506 0 
475 -535 536 0 
-476 -507 0 
-476 -537 0 
476 -506 507 0 
476 -536 537 0 
-477 -508 0 
-477 -538 0 
477 -507 508 0 
477 -537 538 0 
-478 -509 0 
-478 -539 0 
478 -508 509 0 
478 -538 539 0 
-479 -510 0 
-479 -540 0 
479 -509 510 0 
479 -539 540 0 
-480 -511 0 
-480 -541 0 
480 -510 511 0 
480 -540 541 0 
-481 -512 0 
-481 -542 0 
481 -511 512 0 
481 -541 542 0 
-482 -513 0 
-482 -543 0 
482 -512 513 0 
482 -542 543 0 
-483 -514 0 
-483 -544 0 
483 -513 514 0 
483 -543 544 0 
-484 -515 0 
-484 -545 0 
484 -514 515 0 
484 -544 545 0 
-485 -516 0 
-485 -546 0 
485 -515 516 0 
485 -545 546 0 
-486 -517 0 
-486 -547 0 
486 -516 517 0 
486 -546 547 0 
-487 -518 0 
-487 -547 548 0 
487 -548 0 
487 -517 518 0 
-488 -519 0 
-488 -549 0 
488 -518 519 0 
488 -548 549 0 
-489 -520 0 
-489 -549 550 0 
489 -550 0 
489 -519 520 0 
-490 -521 0 
-490 -550 551 0 
490 -551 0 
490 -520 521 0 
-491 -522 0 
-491 -552 0 
491 -521 522 0 
491 -551 552 0 
-492 -552 0 
492 -522 0 
493 -494 0 
494 -495 0 
495 -496 0 
496 -497 0 
497 -498 0 
498 -499 0 
499 -500 0 
500 -501 0 
501 -502 0 
502 -503 0 
503 -504 0 
504 -505 0 
505 -506 0 
506 -507 0 
507 -508 0 
508 -509 0 
509 -510 0 
510 -511 0 
511 -512 0 
512 -513 0 
513 -514 0 
514 -515 0 
515 -516 0 
516 -517 0 
517 -518 0 
518 -519 0 
519 -520 0 
520 -521 0 
521 -522 0 
523 -524 0 
524 -525 0 
525 -526 0 
526 -527 0 
527 -528 0 
528 -529 0 
529 -530 0 
530 -531 0 
531 -532 0 
532 -533 0 
533 -534 0 
534 -535 0 
535 -536 0 
536 -537 0 
537 -538 0 
538 -539 0 
539 -540 0 
540 -541 0 
541 -542 0 
542 -543 0 
543 -544 0 
544 -545 0 
545 -546 0 
546 -547 0 
547 -548 0 
548 -549 0 
549 -550 0 
550 -551 0 
551 -552 0 
-553 -585 0 
553 554 585 0 
-554 -585 0 
-555 -586 0 
555 -585 586 0 
-556 -587 0 
556 -586 587 0 
-557 -588 0 
557 -587 588 0 
-558 -589 0 
558 -588 589 0 
-559 -590 0 
559 -589 590 0 
-560 -591 0 
560 -590 591 0 
-561 -592 0 
561 -591 592 0 
-562 -593 0 
562 -592 593 0 
-563 -594 0 
563 -593 594 0 
-564 -595 0 
564 -594 595 0 
-565 -596 0 
565 -595 596 0 
-566 -597 0 
566 -596 597 0 
-567 -598 0 
567 -597 598 0 
-568 -599 0 
568 -598 599 0 
-569 -600 0 
569 -599 600 0 
-570 -601 0 
570 -600 601 0 
-571 -602 0 
571 -601 602 0 
-572 -603 0 
572 -602 603 0 
-573 -604 0 
573 -603 604 0 
-574 -605 0 
574 -604 605 0 
-575 -606 0 
575 -605 606 0 
-576 -607 0 
576 -606 607 0 
-577 -608 0 
577 -607 608 0 
-578 -609 0 
578 -608 609 0 
-579 -610 0 
579 -609 610 0 
-580 -611 0 
580 -610 611 0 
-581 -612 0 
581 -611 612 0 
-582 -613 0 
582 -612 613 0 
-583 -614 0 
583 -613 614 0 
584 -614 0 
585 -586 0 
586 -587 0 
587 -588 0 
588 -589 0 
589 -590 0 
590 -591 0 
591 -592 0 
592 -593 0 
593 -594 0 
594 -595 0 
595 -596 0 
596 -597 0 
597 -598 0 
598 -599 0 
599 -600 0 
600 -601 0 
601 -602 0 
602 -603 0 
603 -604 0 
604 -605 0 
605 -606 0 
606 -607 0 
607 -608 0 
608 -609 0 
609 -610 0 
610 -611 0 
611 -612 0 
612 -613 0 
613 -614 0 
